100
100
100
99
98
97
97
96
95
95
93
93
93
93
91
91
90
89
89
89
89
89
89
88
88
87
86
84
84
81
80
79
78
78
76
75
74
72
72
71
71
70
69
69
66
66
63
63
62
62
61
60
59
59
57
57
55
55
55
54
54
54
53
53
52
52
51
50
50
50
49
49
48
47
47
41
40
40
39
38
36
35
34
33
33
32
31
31
31
31
30
30
28
27
24
23
23
22
21
20
20
20
